15
1 0 5
2 0 36
2 1 42
3 0 57
3 1 18
3 2 14
4 0 22
4 1 8
4 2 56
4 3 30
5 0 53
5 1 27
5 2 6
5 3 54
5 4 43
6 0 56
6 1 21
6 2 33
6 3 21
6 4 21
6 5 49
7 0 28
7 1 30
7 2 10
7 3 30
7 4 40
7 5 32
7 6 11
8 0 9
8 1 34
8 2 25
8 3 7
8 4 7
8 5 35
8 6 22
8 7 33
9 0 7
9 1 28
9 2 56
9 3 34
9 4 4
9 5 38
9 6 21
9 7 35
9 8 21
10 0 23
10 1 34
10 2 27
10 3 26
10 4 46
10 5 31
10 6 46
10 7 25
10 8 43
10 9 49
11 0 51
11 1 54
11 2 28
11 3 36
11 4 49
11 5 50
11 6 21
11 7 7
11 8 55
11 9 13
11 10 50
12 0 34
12 1 5
12 2 35
12 3 15
12 4 53
12 5 44
12 6 52
12 7 51
12 8 38
12 9 29
12 10 8
12 11 36
13 0 49
13 1 2
13 2 35
13 3 33
13 4 37
13 5 47
13 6 53
13 7 11
13 8 20
13 9 2
13 10 20
13 11 18
13 12 43
14 0 44
14 1 34
14 2 50
14 3 45
14 4 8
14 5 7
14 6 20
14 7 42
14 8 34
14 9 22
14 10 51
14 11 34
14 12 39
14 13 50
